A
0
M
1 1 1
 0. 0. 0.

Automatically generated mesh
3
Reciprocal lattice
 -0.3333333333333333 -0.3333333333333334  0.0000000000000000  6.000000
 -0.3333333333333333  0.3333333333333334  0.0000000000000000  2.000000
  0.0000000000000000  0.0000000000000000  0.0000000000000000  1.000000

Automatically generated mesh
       8
Reciprocal lattice
 -0.4285714285714285 -0.4285714285714286  0.0000000000000000  6.000000
 -0.4285714285714285 -0.2857142857142857  0.0000000000000000 12.000000
 -0.4285714285714285  0.1428571428571429  0.0000000000000000  6.000000
 -0.4285714285714285  0.2857142857142857  0.0000000000000000  6.000000
 -0.2857142857142857 -0.2857142857142857  0.0000000000000000  6.000000
 -0.2857142857142857 -0.1428571428571428  0.0000000000000000  6.000000
 -0.1428571428571428 -0.1428571428571428  0.0000000000000000  6.000000
  0.0000000000000000  0.0000000000000000  0.0000000000000000  1.000000



