core level of atom 525
   2.7400000000000002     
     9.0000000000000000    0.0000000000000000    0.0000000000000000
    -4.5000000000000000    7.7942286269999990    0.0000000000000000
     0.0000000000000000    0.0000000000000000    8.8989794860000000
1   324   200    12     6
Direct
  0.6813877782858069  0.5150006251137423  0.4809729681286382   T   T   T
  0.0000000000000000  0.0000000000000000  0.0000009755669979   F   F   F
  0.8888889999999989  0.0000000000000000  0.0000009755669979   F   F   F
  0.7777779999999979  0.0000000000000000  0.0000009755669979   F   F   F
  0.6666669999999968  0.0000000000000000  0.0000009755669979   F   F   F
  0.5555560000000028  0.0000000000000000  0.0000009755669979   F   F   F
  0.4444439999999972  0.0000000000000000  0.0000009755669979   F   F   F
  0.3333330000000032  0.0000000000000000  0.0000009755669979   F   F   F
  0.2222220000000021  0.0000000000000000  0.0000009755669979   F   F   F
  0.1111110000000011  0.0000000000000000  0.0000009755669979   F   F   F
  0.0000000000000000  0.8888889999999989  0.0000009755669979   F   F   F
  0.8888889999999989  0.8888889999999989  0.0000009755669979   F   F   F
  0.7777779999999979  0.8888889999999989  0.0000009755669979   F   F   F
  0.6666669999999968  0.8888889999999989  0.0000009755669979   F   F   F
  0.5555560000000028  0.8888889999999989  0.0000009755669979   F   F   F
  0.4444439999999972  0.8888889999999989  0.0000009755669979   F   F   F
  0.3333330000000032  0.8888889999999989  0.0000009755669979   F   F   F
  0.2222220000000021  0.8888889999999989  0.0000009755669979   F   F   F
  0.1111110000000011  0.8888889999999989  0.0000009755669979   F   F   F
  0.0000000000000000  0.7777779999999979  0.0000009755669979   F   F   F
  0.8888889999999989  0.7777779999999979  0.0000009755669979   F   F   F
  0.7777779999999979  0.7777779999999979  0.0000009755669979   F   F   F
  0.6666669999999968  0.7777779999999979  0.0000009755669979   F   F   F
  0.5555560000000028  0.7777779999999979  0.0000009755669979   F   F   F
  0.4444439999999972  0.7777779999999979  0.0000009755669979   F   F   F
  0.3333330000000032  0.7777779999999979  0.0000009755669979   F   F   F
  0.2222220000000021  0.7777779999999979  0.0000009755669979   F   F   F
  0.1111110000000011  0.7777779999999979  0.0000009755669979   F   F   F
  0.0000000000000000  0.6666669999999968  0.0000009755669979   F   F   F
  0.8888889999999989  0.6666669999999968  0.0000009755669979   F   F   F
  0.7777779999999979  0.6666669999999968  0.0000009755669979   F   F   F
  0.6666669999999968  0.6666669999999968  0.0000009755669979   F   F   F
  0.5555560000000028  0.6666669999999968  0.0000009755669979   F   F   F
  0.4444439999999972  0.6666669999999968  0.0000009755669979   F   F   F
  0.3333330000000032  0.6666669999999968  0.0000009755669979   F   F   F
  0.2222220000000021  0.6666669999999968  0.0000009755669979   F   F   F
  0.1111110000000011  0.6666669999999968  0.0000009755669979   F   F   F
  0.0000000000000000  0.5555560000000028  0.0000009755669979   F   F   F
  0.8888889999999989  0.5555560000000028  0.0000009755669979   F   F   F
  0.7777779999999979  0.5555560000000028  0.0000009755669979   F   F   F
  0.6666669999999968  0.5555560000000028  0.0000009755669979   F   F   F
  0.5555560000000028  0.5555560000000028  0.0000009755669979   F   F   F
  0.4444439999999972  0.5555560000000028  0.0000009755669979   F   F   F
  0.3333330000000032  0.5555560000000028  0.0000009755669979   F   F   F
  0.2222220000000021  0.5555560000000028  0.0000009755669979   F   F   F
  0.1111110000000011  0.5555560000000028  0.0000009755669979   F   F   F
  0.0000000000000000  0.4444439999999972  0.0000009755669979   F   F   F
  0.8888889999999989  0.4444439999999972  0.0000009755669979   F   F   F
  0.7777779999999979  0.4444439999999972  0.0000009755669979   F   F   F
  0.6666669999999968  0.4444439999999972  0.0000009755669979   F   F   F
  0.5555560000000028  0.4444439999999972  0.0000009755669979   F   F   F
  0.4444439999999972  0.4444439999999972  0.0000009755669979   F   F   F
  0.3333330000000032  0.4444439999999972  0.0000009755669979   F   F   F
  0.2222220000000021  0.4444439999999972  0.0000009755669979   F   F   F
  0.1111110000000011  0.4444439999999972  0.0000009755669979   F   F   F
  0.0000000000000000  0.3333330000000032  0.0000009755669979   F   F   F
  0.8888889999999989  0.3333330000000032  0.0000009755669979   F   F   F
  0.7777779999999979  0.3333330000000032  0.0000009755669979   F   F   F
  0.6666669999999968  0.3333330000000032  0.0000009755669979   F   F   F
  0.5555560000000028  0.3333330000000032  0.0000009755669979   F   F   F
  0.4444439999999972  0.3333330000000032  0.0000009755669979   F   F   F
  0.3333330000000032  0.3333330000000032  0.0000009755669979   F   F   F
  0.2222220000000021  0.3333330000000032  0.0000009755669979   F   F   F
  0.1111110000000011  0.3333330000000032  0.0000009755669979   F   F   F
  0.0000000000000000  0.2222220000000021  0.0000009755669979   F   F   F
  0.8888889999999989  0.2222220000000021  0.0000009755669979   F   F   F
  0.7777779999999979  0.2222220000000021  0.0000009755669979   F   F   F
  0.6666669999999968  0.2222220000000021  0.0000009755669979   F   F   F
  0.5555560000000028  0.2222220000000021  0.0000009755669979   F   F   F
  0.4444439999999972  0.2222220000000021  0.0000009755669979   F   F   F
  0.3333330000000032  0.2222220000000021  0.0000009755669979   F   F   F
  0.2222220000000021  0.2222220000000021  0.0000009755669979   F   F   F
  0.1111110000000011  0.2222220000000021  0.0000009755669979   F   F   F
  0.0000000000000000  0.1111110000000011  0.0000009755669979   F   F   F
  0.8888889999999989  0.1111110000000011  0.0000009755669979   F   F   F
  0.7777779999999979  0.1111110000000011  0.0000009755669979   F   F   F
  0.6666669999999968  0.1111110000000011  0.0000009755669979   F   F   F
  0.5555560000000028  0.1111110000000011  0.0000009755669979   F   F   F
  0.4444439999999972  0.1111110000000011  0.0000009755669979   F   F   F
  0.3333330000000032  0.1111110000000011  0.0000009755669979   F   F   F
  0.2222220000000021  0.1111110000000011  0.0000009755669979   F   F   F
  0.1111110000000011  0.1111110000000011  0.0000009755669979   F   F   F
  0.9259259999999969  0.9629630000000020  0.0917529999999971   F   F   F
  0.8148150000000030  0.9629630000000020  0.0917529999999971   F   F   F
  0.7037040000000019  0.9629630000000020  0.0917529999999971   F   F   F
  0.5925930000000008  0.9629630000000020  0.0917529999999971   F   F   F
  0.4814810000000023  0.9629630000000020  0.0917529999999971   F   F   F
  0.3703700000000012  0.9629630000000020  0.0917529999999971   F   F   F
  0.2592590000000001  0.9629630000000020  0.0917529999999971   F   F   F
  0.1481479999999991  0.9629630000000020  0.0917529999999971   F   F   F
  0.0370369999999980  0.9629630000000020  0.0917529999999971   F   F   F
  0.9259259999999969  0.8518520000000009  0.0917529999999971   F   F   F
  0.8148150000000030  0.8518520000000009  0.0917529999999971   F   F   F
  0.7037040000000019  0.8518520000000009  0.0917529999999971   F   F   F
  0.5925930000000008  0.8518520000000009  0.0917529999999971   F   F   F
  0.4814810000000023  0.8518520000000009  0.0917529999999971   F   F   F
  0.3703700000000012  0.8518520000000009  0.0917529999999971   F   F   F
  0.2592590000000001  0.8518520000000009  0.0917529999999971   F   F   F
  0.1481479999999991  0.8518520000000009  0.0917529999999971   F   F   F
  0.0370369999999980  0.8518520000000009  0.0917529999999971   F   F   F
  0.9259259999999969  0.7407409999999999  0.0917529999999971   F   F   F
  0.8148150000000030  0.7407409999999999  0.0917529999999971   F   F   F
  0.7037040000000019  0.7407409999999999  0.0917529999999971   F   F   F
  0.5925930000000008  0.7407409999999999  0.0917529999999971   F   F   F
  0.4814810000000023  0.7407409999999999  0.0917529999999971   F   F   F
  0.3703700000000012  0.7407409999999999  0.0917529999999971   F   F   F
  0.2592590000000001  0.7407409999999999  0.0917529999999971   F   F   F
  0.1481479999999991  0.7407409999999999  0.0917529999999971   F   F   F
  0.0370369999999980  0.7407409999999999  0.0917529999999971   F   F   F
  0.9259259999999969  0.6296299999999988  0.0917529999999971   F   F   F
  0.8148150000000030  0.6296299999999988  0.0917529999999971   F   F   F
  0.7037040000000019  0.6296299999999988  0.0917529999999971   F   F   F
  0.5925930000000008  0.6296299999999988  0.0917529999999971   F   F   F
  0.4814810000000023  0.6296299999999988  0.0917529999999971   F   F   F
  0.3703700000000012  0.6296299999999988  0.0917529999999971   F   F   F
  0.2592590000000001  0.6296299999999988  0.0917529999999971   F   F   F
  0.1481479999999991  0.6296299999999988  0.0917529999999971   F   F   F
  0.0370369999999980  0.6296299999999988  0.0917529999999971   F   F   F
  0.9259259999999969  0.5185189999999977  0.0917529999999971   F   F   F
  0.8148150000000030  0.5185189999999977  0.0917529999999971   F   F   F
  0.7037040000000019  0.5185189999999977  0.0917529999999971   F   F   F
  0.5925930000000008  0.5185189999999977  0.0917529999999971   F   F   F
  0.4814810000000023  0.5185189999999977  0.0917529999999971   F   F   F
  0.3703700000000012  0.5185189999999977  0.0917529999999971   F   F   F
  0.2592590000000001  0.5185189999999977  0.0917529999999971   F   F   F
  0.1481479999999991  0.5185189999999977  0.0917529999999971   F   F   F
  0.0370369999999980  0.5185189999999977  0.0917529999999971   F   F   F
  0.9259259999999969  0.4074069999999992  0.0917529999999971   F   F   F
  0.8148150000000030  0.4074069999999992  0.0917529999999971   F   F   F
  0.7037040000000019  0.4074069999999992  0.0917529999999971   F   F   F
  0.5925930000000008  0.4074069999999992  0.0917529999999971   F   F   F
  0.4814810000000023  0.4074069999999992  0.0917529999999971   F   F   F
  0.3703700000000012  0.4074069999999992  0.0917529999999971   F   F   F
  0.2592590000000001  0.4074069999999992  0.0917529999999971   F   F   F
  0.1481479999999991  0.4074069999999992  0.0917529999999971   F   F   F
  0.0370369999999980  0.4074069999999992  0.0917529999999971   F   F   F
  0.9259259999999969  0.2962959999999981  0.0917529999999971   F   F   F
  0.8148150000000030  0.2962959999999981  0.0917529999999971   F   F   F
  0.7037040000000019  0.2962959999999981  0.0917529999999971   F   F   F
  0.5925930000000008  0.2962959999999981  0.0917529999999971   F   F   F
  0.4814810000000023  0.2962959999999981  0.0917529999999971   F   F   F
  0.3703700000000012  0.2962959999999981  0.0917529999999971   F   F   F
  0.2592590000000001  0.2962959999999981  0.0917529999999971   F   F   F
  0.1481479999999991  0.2962959999999981  0.0917529999999971   F   F   F
  0.0370369999999980  0.2962959999999981  0.0917529999999971   F   F   F
  0.9259259999999969  0.1851849999999970  0.0917529999999971   F   F   F
  0.8148150000000030  0.1851849999999970  0.0917529999999971   F   F   F
  0.7037040000000019  0.1851849999999970  0.0917529999999971   F   F   F
  0.5925930000000008  0.1851849999999970  0.0917529999999971   F   F   F
  0.4814810000000023  0.1851849999999970  0.0917529999999971   F   F   F
  0.3703700000000012  0.1851849999999970  0.0917529999999971   F   F   F
  0.2592590000000001  0.1851849999999970  0.0917529999999971   F   F   F
  0.1481479999999991  0.1851849999999970  0.0917529999999971   F   F   F
  0.0370369999999980  0.1851849999999970  0.0917529999999971   F   F   F
  0.9259259999999969  0.0740740999999971  0.0917529999999971   F   F   F
  0.8148150000000030  0.0740740999999971  0.0917529999999971   F   F   F
  0.7037040000000019  0.0740740999999971  0.0917529999999971   F   F   F
  0.5925930000000008  0.0740740999999971  0.0917529999999971   F   F   F
  0.4814810000000023  0.0740740999999971  0.0917529999999971   F   F   F
  0.3703700000000012  0.0740740999999971  0.0917529999999971   F   F   F
  0.2592590000000001  0.0740740999999971  0.0917529999999971   F   F   F
  0.1481479999999991  0.0740740999999971  0.0917529999999971   F   F   F
  0.0370369999999980  0.0740740999999971  0.0917529999999971   F   F   F
  0.9631374902008468  0.9261059256223313  0.1814048827869002   T   T   T
  0.8520703694618678  0.9261363540038622  0.1813169917925744   T   T   T
  0.7408470897425211  0.9261429086898640  0.1813050526158011   T   T   T
  0.6296243198915510  0.9261169770477795  0.1813751238477986   T   T   T
  0.5185215190411984  0.9260140250869006  0.1815329801352686   T   T   T
  0.4073444820520405  0.9258917167067390  0.1815553392031393   T   T   T
  0.2962556188943137  0.9258604319536006  0.1815458585527848   T   T   T
  0.1852145917917728  0.9258810830010201  0.1815561149274154   T   T   T
  0.0741486883288265  0.9259753079848804  0.1815937124233379   T   T   T
  0.9632163902431345  0.8149991204946041  0.1813477798674385   T   T   T
  0.8519189365380818  0.8149167783982939  0.1812974354437391   T   T   T
  0.7408335670833447  0.8149137389903172  0.1813408123931424   T   T   T
  0.6297003054545287  0.8149035638001724  0.1812769853181943   T   T   T
  0.5184794363025198  0.8149599278623719  0.1813068386762409   T   T   T
  0.4073643754150171  0.8149031639367504  0.1814615330442194   T   T   T
  0.2962719749129709  0.8148438771766691  0.1815741829528478   T   T   T
  0.1852498241885733  0.8148349489742658  0.1815618734141129   T   T   T
  0.0742492262530579  0.8149226912542898  0.1815500753610917   T   T   T
  0.9632623822005255  0.7038370692390149  0.1813283412800971   T   T   T
  0.8520477458180243  0.7038467208814543  0.1810340165410119   T   T   T
  0.7400333775643896  0.7033148879453528  0.1820431580613844   T   T   T
  0.6296361716701057  0.7035695628382522  0.1823055281255311   T   T   T
  0.5188237751492977  0.7034397870911829  0.1821482865746669   T   T   T
  0.4073306755236692  0.7038327960071366  0.1813367867522663   T   T   T
  0.2961448272303627  0.7037714177041201  0.1814503653234115   T   T   T
  0.1851902041842442  0.7037593569725676  0.1815532444053506   T   T   T
  0.0742239272107697  0.7037524298879715  0.1815436007131285   T   T   T
  0.9631954356000469  0.5926458150140488  0.1813521422133563   T   T   T
  0.8518300734782275  0.5925227558577700  0.1813628300662146   T   T   T
  0.7403389749765298  0.5922956648155288  0.1819272292535763   T   T   T
  0.6294499312403944  0.5924721052777714  0.1828179865313294   T   T   T
  0.5187724442996665  0.5928252535071186  0.1820010413568679   T   T   T
  0.4075148116426430  0.5923872804162006  0.1815488239150124   T   T   T
  0.2960336770089427  0.5926467873665582  0.1812671249624674   T   T   T
  0.1850612224043789  0.5925929833537051  0.1815226403778733   T   T   T
  0.0741109059919346  0.5925883093939660  0.1815871906683783   T   T   T
  0.9631472254532664  0.4814705611774442  0.1814206833650475   T   T   T
  0.8519538144579988  0.4814313063523543  0.1813061086695086   T   T   T
  0.7405440528503153  0.4814065191211522  0.1819824466437363   T   T   T
  0.6296671273594048  0.4813533488738154  0.1828169744670524   T   T   T
  0.5186585416117949  0.4817693700034205  0.1822111144674832   T   T   T
  0.4074727560993367  0.4810285035066640  0.1819554840351596   T   T   T
  0.2960490157916086  0.4813704082495109  0.1812068595648761   T   T   T
  0.1849032350798717  0.4814310347736062  0.1813698419048051   T   T   T
  0.0740004023226012  0.4814190227794318  0.1815788459278283   T   T   T
  0.9629950710812695  0.3703059047950094  0.1814640941602764   T   T   T
  0.8520067407369653  0.3703164024375420  0.1813554908966886   T   T   T
  0.7408937060883409  0.3703560098372904  0.1813053531106886   T   T   T
  0.6299547015048134  0.3706372593222230  0.1818794194159357   T   T   T
  0.5184422457055643  0.3703780387998818  0.1818065018594246   T   T   T
  0.4077186567747308  0.3708064820238892  0.1823536313906128   T   T   T
  0.2959725086933696  0.3701460182708384  0.1812532217472826   T   T   T
  0.1848394367588788  0.3702607130035624  0.1812878251993421   T   T   T
  0.0739108767007899  0.3702718174847056  0.1814856744638419   T   T   T
  0.9629340394409072  0.2592009120045820  0.1814574640668007   T   T   T
  0.8518999715780791  0.2591893131539478  0.1814293990443551   T   T   T
  0.7408059368757580  0.2591163327001897  0.1813378495261649   T   T   T
  0.6297258701496152  0.2591757650603279  0.1813033435558510   T   T   T
  0.5185898772079424  0.2592378963699029  0.1812465346856420   T   T   T
  0.4076698820904665  0.2599563020830012  0.1820625296515136   T   T   T
  0.2961352789875806  0.2591316451134968  0.1812330774776695   T   T   T
  0.1848847037621739  0.2590184886566059  0.1813135091408064   T   T   T
  0.0738937398649550  0.2591503771250213  0.1814279838835753   T   T   T
  0.9629265969506479  0.1481324229813296  0.1814715717337435   T   T   T
  0.8518712552470161  0.1481472976958355  0.1814734215413135   T   T   T
  0.7407906148089216  0.1480893748606284  0.1814458896468430   T   T   T
  0.6296714390147889  0.1479574995814863  0.1813899604654302   T   T   T
  0.5184637842602847  0.1478334266750507  0.1813170319051079   T   T   T
  0.4072838730906394  0.1478935882466328  0.1812616113983169   T   T   T
  0.2961111867702557  0.1478870340169117  0.1812564637850664   T   T   T
  0.1849440806078279  0.1479034327762963  0.1813858992208486   T   T   T
  0.0739284362901205  0.1480483583219739  0.1814732071429253   T   T   T
  0.9629994835194171  0.0371156770850037  0.1815051886224904   T   T   T
  0.8519263879502309  0.0371514874439445  0.1814323985562239   T   T   T
  0.7407879255938169  0.0371301886612422  0.1814369841933936   T   T   T
  0.6296880096658423  0.0370664846803143  0.1815847588340500   T   T   T
  0.5185104833128045  0.0369290794949399  0.1815785291307002   T   T   T
  0.4073329947219270  0.0368291549935035  0.1815057591784427   T   T   T
  0.2961801683675875  0.0368485867514127  0.1814802126059412   T   T   T
  0.1850774683441008  0.0369055532265973  0.1815101069613943   T   T   T
  0.0740112162495170  0.0369993561900504  0.1815739879480384   T   T   T
  0.0000040435635871  0.0001608266428895  0.2710684223851242   T   T   T
  0.8889418459964941  0.0002789686915487  0.2709614902617322   T   T   T
  0.7780218906301283  0.0003205270575216  0.2709364939926291   T   T   T
  0.6669353313787364  0.0002462376843030  0.2710107584971866   T   T   T
  0.5557109349042064  0.0001369375874584  0.2711163963796194   T   T   T
  0.4445688781524791  0.9998882437835415  0.2711301151773570   T   T   T
  0.3333557074875839  0.0000075161111127  0.2711118561477049   T   T   T
  0.2221023011190618  0.9999710215098903  0.2710997995622014   T   T   T
  0.1110018182120831  0.0000069834415696  0.2711196564062856   T   T   T
  0.0000102315720194  0.8890543353670562  0.2710084602085219   T   T   T
  0.8892310491445226  0.8893835130291763  0.2708340546764341   T   T   T
  0.7782715775176783  0.8897016373733693  0.2707327320944863   T   T   T
  0.6670043724986019  0.8896033470940320  0.2707812052408874   T   T   T
  0.5557280882360348  0.8891475300311154  0.2709932288667236   T   T   T
  0.4445364400156352  0.8889651433892177  0.2710960578688512   T   T   T
  0.3333213703188962  0.8889040609097593  0.2711819230131891   T   T   T
  0.2222288970107709  0.8888906340537807  0.2711905484472958   T   T   T
  0.1111565274659544  0.8889715252886408  0.2711388701361195   T   T   T
  0.0001865280407866  0.7779194248368371  0.2709859280506900   T   T   T
  0.8895990557575154  0.7783501702755065  0.2707589377956374   T   T   T
  0.7789932545838344  0.7791010449317134  0.2707925176460344   T   T   T
  0.6675802190208899  0.7798105462363153  0.2706703114277607   T   T   T
  0.5558381171252871  0.7790117068483965  0.2706672920001805   T   T   T
  0.4443339447092389  0.7781028685677098  0.2709303617772690   T   T   T
  0.3333407930039649  0.7777093568739686  0.2710979696311981   T   T   T
  0.2222749903635716  0.7777764862599872  0.2711865461612291   T   T   T
  0.1111127635683774  0.7777879117963175  0.2711530526107592   T   T   T
  0.0002752245382380  0.6667101281969132  0.2709612554140201   T   T   T
  0.8895756377487430  0.6670239670383841  0.2706750206126648   T   T   T
  0.7799853087374758  0.6678456969238502  0.2702833137784342   T   T   T
  0.6688989080311827  0.6679234996993001  0.2736750365217276   T   T   T
  0.5547104815386106  0.6680088423149277  0.2736062829927012   T   T   T
  0.4436241972526877  0.6670229240504246  0.2709132229338886   T   T   T
  0.3330297756477245  0.6666844994239480  0.2709078545569928   T   T   T
  0.2219887433814510  0.6665167133360682  0.2711011812364217   T   T   T
  0.1111055521337189  0.6666033553304868  0.2711186302917525   T   T   T
  0.0000431086666703  0.5553952656264306  0.2710425787836853   T   T   T
  0.8894538459881615  0.5554839846544951  0.2707651209840641   T   T   T
  0.7796444503289607  0.5564086551408749  0.2710399286204138   T   T   T
  0.6680486396525809  0.5558028051440217  0.2740412444045471   T   T   T
  0.5559375414900168  0.5556357739807400  0.2717716956190360   T   T   T
  0.4421693603195497  0.5560044570320746  0.2710114546405210   T   T   T
  0.3321498415203560  0.5554077073531936  0.2706677550008517   T   T   T
  0.2217992187561298  0.5553140993292559  0.2709562460650284   T   T   T
  0.1109815828100856  0.5554085525710167  0.2711050197950551   T   T   T
 -0.0000707130247205  0.4441943666869567  0.2710442239336872   T   T   T
  0.8892079738370762  0.4442322586716325  0.2708433534330896   T   T   T
  0.7788244070468704  0.4440706303464169  0.2706664305151416   T   T   T
  0.6676899181375952  0.4442476896611654  0.2741310687220260   T   T   T
  0.5566022853948994  0.4440753555945935  0.2717604975445974   T   T   T
  0.4422659041622444  0.4435605399955647  0.2728421339894473   T   T   T
  0.3311558252171067  0.4435593971660731  0.2707107362013300   T   T   T
  0.2214345355309711  0.4441095535919296  0.2707729354985838   T   T   T
  0.1107943583889846  0.4441997916889117  0.2710176958843674   T   T   T
  0.9998520857926333  0.3331771169169802  0.2710114671702765   T   T   T
  0.8889413487316529  0.3331048319663008  0.2709531316208408   T   T   T
  0.7781973874857467  0.3329687676013828  0.2707601909101101   T   T   T
  0.6672605056225784  0.3324283505915578  0.2707143189133180   T   T   T
  0.5555233605783509  0.3313141413815529  0.2704014150036851   T   T   T
  0.4433128014563948  0.3309352738658160  0.2731816250566774   T   T   T
  0.3309813611013331  0.3319015245097776  0.2706335488812936   T   T   T
  0.2210950640001262  0.3327468094723892  0.2707318849091929   T   T   T
  0.1106397282904194  0.3330127908605197  0.2709661631456668   T   T   T
  0.9998242698678047  0.2221430944901042  0.2710165751687263   T   T   T
  0.8888961396221795  0.2221284167899127  0.2710088958673488   T   T   T
  0.7780132760534502  0.2221372788932616  0.2709497569230332   T   T   T
  0.6669189347287197  0.2218697734529918  0.2708333040224717   T   T   T
  0.5556830556110086  0.2213545575405357  0.2706645384231964   T   T   T
  0.4442801195588721  0.2210317987383484  0.2706328504378854   T   T   T
  0.3320026960114002  0.2211010465543109  0.2706918880759352   T   T   T
  0.2215069062963062  0.2217275320426101  0.2708235221723806   T   T   T
  0.1106540033118015  0.2220022863307930  0.2709506935889259   T   T   T
  0.9999444401032102  0.1111592508800737  0.2710269819092067   T   T   T
  0.8889146924871372  0.1111626754145840  0.2710166413993212   T   T   T
  0.7778577775217523  0.1111305319211144  0.2710124316543027   T   T   T
  0.6668537502315102  0.1111114068079350  0.2710414498392671   T   T   T
  0.5557911033863356  0.1109514817202532  0.2709845208462529   T   T   T
  0.4443688888138447  0.1108273183725607  0.2709468014769660   T   T   T
  0.3330605588753307  0.1107560700155579  0.2709244454128045   T   T   T
  0.2219679182906293  0.1109631250743022  0.2710008441859107   T   T   T
  0.1107263879444915  0.1109901363575141  0.2710439590696843   T   T   T
  0.9913266535458758  0.0177446858242958  0.4138094146597824   T   T   T
  0.8914234822329989  0.0179027420962451  0.4111542197141922   T   T   T
  0.7914348892981706  0.0179563106786637  0.4109979304391896   T   T   T
  0.6913806160989150  0.0177989495721480  0.4135559308982822   T   T   T
  0.5913572606825924  0.0176964489369067  0.4169670582632201   T   T   T
  0.4913633886461079  0.0177583008536667  0.4195993936167989   T   T   T
  0.3913297452690035  0.0178120674669340  0.4206923043065808   T   T   T
  0.2912800394615156  0.0177774383077351  0.4205508121638432   T   T   T
  0.1912352876631052  0.0177421823312547  0.4195666462000380   T   T   T
  0.0912593296968294  0.0177180192439920  0.4171959250668851   T   T   T
  0.9911404559803528  0.9177013171074555  0.4155888111262421   T   T   T
  0.8912216841116000  0.9178269023029734  0.4109667862918367   T   T   T
  0.7914170875640998  0.9181800680474931  0.4082896740774134   T   T   T
  0.6914022886874475  0.9180618292429584  0.4098912733014731   T   T   T
  0.5913477240750264  0.9177420302213615  0.4145005401418484   T   T   T
  0.4913649359063559  0.9177316028480949  0.4192328271885014   T   T   T
  0.3913248264564512  0.9177514597770314  0.4223849737835857   T   T   T
  0.2912369923643263  0.9177404029361532  0.4233879511154032   T   T   T
  0.1911203286992352  0.9176747539570930  0.4225435886917045   T   T   T
  0.0910626022347845  0.9176134889744558  0.4198464512471918   T   T   T
  0.9908976673805002  0.8175529693554577  0.4162585230019723   T   T   T
  0.8911681443553503  0.8178721626933247  0.4091780689005944   T   T   T
  0.7913923048743429  0.8184648625445423  0.4019511619676771   T   T   T
  0.6915290639067948  0.8187837486197997  0.3997498533924803   T   T   T
  0.5913539306227898  0.8180876217139835  0.4056208956600842   T   T   T
  0.4913380103314983  0.8178461830742478  0.4135220793267276   T   T   T
  0.3913360211320783  0.8177075224028351  0.4198982601993340   T   T   T
  0.2912618578686644  0.8176791712114299  0.4231487032855147   T   T   T
  0.1911009088950055  0.8176235031811967  0.4234724203722015   T   T   T
  0.0909297613561822  0.8175402223828001  0.4211726532205234   T   T   T
  0.9908602694278829  0.7174477605056879  0.4162249415926488   T   T   T
  0.8911050728399901  0.7177455531305803  0.4075194964220512   T   T   T
  0.7917590308623299  0.7188789539638173  0.3962321374653539   T   T   T
  0.6921466027254498  0.7203019124812443  0.3830884360580450   T   T   T
  0.5915265031903568  0.7200205669423798  0.3858774069243441   T   T   T
  0.4910978852750841  0.7184112146792266  0.4007332519204223   T   T   T
  0.3913514354187049  0.7178808336463386  0.4127502091748393   T   T   T
  0.2913542158049457  0.7177193262062600  0.4197811054624709   T   T   T
  0.1911864110994276  0.7176290497987251  0.4222597904671458   T   T   T
  0.0909721598265676  0.7175241173171850  0.4210659599960632   T   T   T
  0.9910457728976865  0.6174975536154322  0.4160326050263988   T   T   T
  0.8912645999174394  0.6174612721305202  0.4071157079719916   T   T   T
  0.7924578208365614  0.6178248629260649  0.3932024538570650   T   T   T
  0.6911206380914602  0.6185235113468401  0.3818583215920602   T   T   T
  0.5913862518861376  0.6202377601063451  0.3648625682416245   T   T   T
  0.4914288174291115  0.6187437109833459  0.3870879374221309   T   T   T
  0.3909595980721467  0.6182956008345289  0.4012220836311273   T   T   T
  0.2913328604306533  0.6178040802648940  0.4135017734209082   T   T   T
  0.1913396385917694  0.6176782562895202  0.4190672162151162   T   T   T
  0.0911889737518917  0.6176048743225461  0.4196644239871957   T   T   T
  0.9912798489827163  0.5175783357058652  0.4153732233262220   T   T   T
  0.8913673842589843  0.5174438654504553  0.4087315941078615   T   T   T
  0.7921127485462898  0.5173132377187689  0.3948756784961737   T   T   T
  0.6916954111090906  0.5172751558294822  0.3818785041620111   T   T   T
  0.5892835914002134  0.5165453202432390  0.3779283577758215   T   T   T
  0.4889346207475184  0.5176862907560456  0.3640688238914557   T   T   T
  0.3897452557989692  0.5176811969200754  0.3895269429815263   T   T   T
  0.2912292336899917  0.5178415386825194  0.4063687912188334   T   T   T
  0.1914577874173415  0.5177695005473582  0.4147049432683747   T   T   T
  0.0913797436042058  0.5177000415295393  0.4170051320049902   T   T   T
  0.9914951293564492  0.4177057416055651  0.4136961181322914   T   T   T
  0.8914638340915327  0.4175481474805397  0.4107609078388238   T   T   T
  0.7916979273283115  0.4171923521596608  0.4020931613805193   T   T   T
  0.6926766867896762  0.4163812759552768  0.3848429163449332   T   T   T
  0.5910303498602077  0.4159038962583393  0.3780697349296135   T   T   T
  0.4886453983425839  0.4144178928308604  0.3638933444523195   T   T   T
  0.3902350288320097  0.4170482483887343  0.3857911866775379   T   T   T
  0.2911007695836048  0.4176225376689160  0.4017933145807876   T   T   T
  0.1914971052586359  0.4177685933228339  0.4107697456031190   T   T   T
  0.0915301809536855  0.4177738674816627  0.4137815713351716   T   T   T
  0.9915534595860634  0.3177689265451517  0.4116298120517042   T   T   T
  0.8915549654878402  0.3176437876614370  0.4110765335274182   T   T   T
  0.7915974821695929  0.3174151383742954  0.4084202994471673   T   T   T
  0.6916921335123987  0.3170396454930950  0.4012825856000158   T   T   T
  0.5914444598369563  0.3158315633434171  0.3918432066380411   T   T   T
  0.4896104043331030  0.3148971914666036  0.3843282484048641   T   T   T
  0.3897144191525536  0.3159115519368958  0.3885887204946444   T   T   T
  0.2911750252537124  0.3175108724025529  0.4021430041153986   T   T   T
  0.1914834086510869  0.3177523476500869  0.4092927418187068   T   T   T
  0.0915270323193788  0.3177832193286731  0.4114609775452490   T   T   T
  0.9915266510915641  0.2177936621887405  0.4106331822959257   T   T   T
  0.8915231003733447  0.2177423218402010  0.4104852987295360   T   T   T