TiO2 slab Gamma
0
Monkhorst-Pack
1 1 1
0.0 0.0 0.0

