TeraGrid TiO2 Benchmark, Doubled in X dimension
1.00000000000000
35.655696 0. 0.
0. 19.745271 0.
0. 0. 27.7371
360 720
Cartesian
0.000000000 0.000000000 7.434494385
17.8278 0.000000000 7.434494385
2.971308000 0.000000000 7.434494385
20.7992 0.000000000 7.434494385
1.485654000 3.290878500 7.093880475
19.3135 3.290878500 7.093880475
4.456962000 3.290878500 7.093880475
22.2848 3.290878500 7.093880475
0.000000000 3.290878500 10.468728597
17.8278 3.290878500 10.468728597
2.971308000 3.290878500 10.468728597
20.7992 3.290878500 10.468728597
1.485654000 0.000000000 10.642836912
19.3135 0.000000000 10.642836912
4.456962000 0.000000000 10.642836912
22.2848 0.000000000 10.642836912
0.000000000 0.000000000 13.868533108
17.8278 0.000000000 13.868533108
2.971308000 0.000000000 13.868533108
20.7992 0.000000000 13.868533108
1.485654000 3.290878500 13.868533108
19.3135 3.290878500 13.868533108
4.456962000 3.290878500 13.868533108
22.2848 3.290878500 13.868533108
0.000000000 3.290878500 17.268337616
17.8278 3.290878500 17.268337616
2.971308000 3.290878500 17.268337616
20.7992 3.290878500 17.268337616
1.485654000 0.000000000 17.094229302
19.3135 0.000000000 17.094229302
4.456962000 0.000000000 17.094229302
22.2848 0.000000000 17.094229302
0.000000000 0.000000000 20.302571828
17.8278 0.000000000 20.302571828
2.971308000 0.000000000 20.302571828
20.7992 0.000000000 20.302571828
1.485654000 3.290878500 20.643185738
19.3135 3.290878500 20.643185738
4.456962000 3.290878500 20.643185738
22.2848 3.290878500 20.643185738
5.942616000 0.000000000 7.434494385
23.7705 0.000000000 7.434494385
8.913924000 0.000000000 7.434494385
26.7418 0.000000000 7.434494385
7.428270000 3.290878500 7.093880475
25.2561 3.290878500 7.093880475
10.399578000 3.290878500 7.093880475
28.2274 3.290878500 7.093880475
5.942616000 3.290878500 10.468728597
23.7705 3.290878500 10.468728597
8.913924000 3.290878500 10.468728597
26.7418 3.290878500 10.468728597
7.428270000 0.000000000 10.642836912
25.2561 0.000000000 10.642836912
10.399578000 0.000000000 10.642836912
28.2274 0.000000000 10.642836912
5.942616000 0.000000000 13.868533108
23.7705 0.000000000 13.868533108
8.913924000 0.000000000 13.868533108
26.7418 0.000000000 13.868533108
7.428270000 3.290878500 13.868533108
25.2561 3.290878500 13.868533108
10.399578000 3.290878500 13.868533108
28.2274 3.290878500 13.868533108
5.942616000 3.290878500 17.268337616
23.7705 3.290878500 17.268337616
8.913924000 3.290878500 17.268337616
26.7418 3.290878500 17.268337616
7.428270000 0.000000000 17.094229302
25.2561 0.000000000 17.094229302
10.399578000 0.000000000 17.094229302
28.2274 0.000000000 17.094229302
5.942616000 0.000000000 20.302571828
23.7705 0.000000000 20.302571828
8.913924000 0.000000000 20.302571828
26.7418 0.000000000 20.302571828
7.428270000 3.290878500 20.643185738
25.2561 3.290878500 20.643185738
10.399578000 3.290878500 20.643185738
28.2274 3.290878500 20.643185738
11.885232000 0.000000000 7.434494385
29.7131 0.000000000 7.434494385
14.856540000 0.000000000 7.434494385
32.6844 0.000000000 7.434494385
13.370886000 3.290878500 7.093880475
31.1987 3.290878500 7.093880475
16.342194000 3.290878500 7.093880475
34.17 3.290878500 7.093880475
11.885232000 3.290878500 10.468728597
29.7131 3.290878500 10.468728597
14.856540000 3.290878500 10.468728597
32.6844 3.290878500 10.468728597
13.370886000 0.000000000 10.642836912
31.1987 0.000000000 10.642836912
16.342194000 0.000000000 10.642836912
34.17 0.000000000 10.642836912
11.885232000 0.000000000 13.868533108
29.7131 0.000000000 13.868533108
14.856540000 0.000000000 13.868533108
32.6844 0.000000000 13.868533108
13.370886000 3.290878500 13.868533108
31.1987 3.290878500 13.868533108
16.342194000 3.290878500 13.868533108
34.17 3.290878500 13.868533108
11.885232000 3.290878500 17.268337616
29.7131 3.290878500 17.268337616
14.856540000 3.290878500 17.268337616
32.6844 3.290878500 17.268337616
13.370886000 0.000000000 17.094229302
31.1987 0.000000000 17.094229302
16.342194000 0.000000000 17.094229302
34.17 0.000000000 17.094229302
11.885232000 0.000000000 20.302571828
29.7131 0.000000000 20.302571828
14.856540000 0.000000000 20.302571828
32.6844 0.000000000 20.302571828
13.370886000 3.290878500 20.643185738
31.1987 3.290878500 20.643185738
16.342194000 3.290878500 20.643185738
34.17 3.290878500 20.643185738
0.000000000 6.581757000 7.434494385
17.8278 6.581757000 7.434494385
2.971308000 6.581757000 7.434494385
20.7992 6.581757000 7.434494385
1.485654000 9.872635500 7.093880475
19.3135 9.872635500 7.093880475
4.456962000 9.872635500 7.093880475
22.2848 9.872635500 7.093880475
0.000000000 9.872635500 10.468728597
17.8278 9.872635500 10.468728597
2.971308000 9.872635500 10.468728597
20.7992 9.872635500 10.468728597
1.485654000 6.581757000 10.642836912
19.3135 6.581757000 10.642836912
4.456962000 6.581757000 10.642836912
22.2848 6.581757000 10.642836912
0.000000000 6.581757000 13.868533108
17.8278 6.581757000 13.868533108
2.971308000 6.581757000 13.868533108
20.7992 6.581757000 13.868533108
1.485654000 9.872635500 13.868533108
19.3135 9.872635500 13.868533108
4.456962000 9.872635500 13.868533108
22.2848 9.872635500 13.868533108
0.000000000 9.872635500 17.268337616
17.8278 9.872635500 17.268337616
2.971308000 9.872635500 17.268337616
20.7992 9.872635500 17.268337616
1.485654000 6.581757000 17.094229302
19.3135 6.581757000 17.094229302
4.456962000 6.581757000 17.094229302
22.2848 6.581757000 17.094229302
0.000000000 6.581757000 20.302571828
17.8278 6.581757000 20.302571828
2.971308000 6.581757000 20.302571828
20.7992 6.581757000 20.302571828
1.485654000 9.872635500 20.643185738
19.3135 9.872635500 20.643185738
4.456962000 9.872635500 20.643185738
22.2848 9.872635500 20.643185738
5.942616000 6.581757000 7.434494385
23.7705 6.581757000 7.434494385
8.913924000 6.581757000 7.434494385
26.7418 6.581757000 7.434494385
7.428270000 9.872635500 7.093880475
25.2561 9.872635500 7.093880475
10.399578000 9.872635500 7.093880475
28.2274 9.872635500 7.093880475
5.942616000 9.872635500 10.468728597
23.7705 9.872635500 10.468728597
8.913924000 9.872635500 10.468728597
26.7418 9.872635500 10.468728597
7.428270000 6.581757000 10.642836912
25.2561 6.581757000 10.642836912
10.399578000 6.581757000 10.642836912
28.2274 6.581757000 10.642836912
5.942616000 6.581757000 13.868533108
23.7705 6.581757000 13.868533108
8.913924000 6.581757000 13.868533108
26.7418 6.581757000 13.868533108
7.428270000 9.872635500 13.868533108
25.2561 9.872635500 13.868533108
10.399578000 9.872635500 13.868533108
28.2274 9.872635500 13.868533108
5.942616000 9.872635500 17.268337616
23.7705 9.872635500 17.268337616
8.913924000 9.872635500 17.268337616
26.7418 9.872635500 17.268337616
7.428270000 6.581757000 17.094229302
25.2561 6.581757000 17.094229302
10.399578000 6.581757000 17.094229302
28.2274 6.581757000 17.094229302
5.942616000 6.581757000 20.302571828
23.7705 6.581757000 20.302571828
8.913924000 6.581757000 20.302571828
26.7418 6.581757000 20.302571828
7.428270000 9.872635500 20.643185738
25.2561 9.872635500 20.643185738
10.399578000 9.872635500 20.643185738
28.2274 9.872635500 20.643185738
11.885232000 6.581757000 7.434494385
29.7131 6.581757000 7.434494385
14.856540000 6.581757000 7.434494385
32.6844 6.581757000 7.434494385
13.370886000 9.872635500 7.093880475
31.1987 9.872635500 7.093880475
16.342194000 9.872635500 7.093880475
34.17 9.872635500 7.093880475
11.885232000 9.872635500 10.468728597
29.7131 9.872635500 10.468728597
14.856540000 9.872635500 10.468728597
32.6844 9.872635500 10.468728597
13.370886000 6.581757000 10.642836912
31.1987 6.581757000 10.642836912
16.342194000 6.581757000 10.642836912
34.17 6.581757000 10.642836912
11.885232000 6.581757000 13.868533108
29.7131 6.581757000 13.868533108
14.856540000 6.581757000 13.868533108
32.6844 6.581757000 13.868533108
13.370886000 9.872635500 13.868533108
31.1987 9.872635500 13.868533108
16.342194000 9.872635500 13.868533108
34.17 9.872635500 13.868533108
11.885232000 9.872635500 17.268337616
29.7131 9.872635500 17.268337616
14.856540000 9.872635500 17.268337616
32.6844 9.872635500 17.268337616
13.370886000 6.581757000 17.094229302
31.1987 6.581757000 17.094229302
16.342194000 6.581757000 17.094229302
34.17 6.581757000 17.094229302
11.885232000 6.581757000 20.302571828
29.7131 6.581757000 20.302571828
14.856540000 6.581757000 20.302571828
32.6844 6.581757000 20.302571828
13.370886000 9.872635500 20.643185738
31.1987 9.872635500 20.643185738
16.342194000 9.872635500 20.643185738
34.17 9.872635500 20.643185738
0.000000000 13.163514000 7.434494385
17.8278 13.163514000 7.434494385
2.971308000 13.163514000 7.434494385
20.7992 13.163514000 7.434494385
1.485654000 16.454392500 7.093880475
19.3135 16.454392500 7.093880475
4.456962000 16.454392500 7.093880475
22.2848 16.454392500 7.093880475
0.000000000 16.454392500 10.468728597
17.8278 16.454392500 10.468728597
2.971308000 16.454392500 10.468728597
20.7992 16.454392500 10.468728597
1.485654000 13.163514000 10.642836912
19.3135 13.163514000 10.642836912
4.456962000 13.163514000 10.642836912
22.2848 13.163514000 10.642836912
0.000000000 13.163514000 13.868533108
17.8278 13.163514000 13.868533108
2.971308000 13.163514000 13.868533108
20.7992 13.163514000 13.868533108
1.485654000 16.454392500 13.868533108
19.3135 16.454392500 13.868533108
4.456962000 16.454392500 13.868533108
22.2848 16.454392500 13.868533108
0.000000000 16.454392500 17.268337616
17.8278 16.454392500 17.268337616
2.971308000 16.454392500 17.268337616
20.7992 16.454392500 17.268337616
1.485654000 13.163514000 17.094229302
19.3135 13.163514000 17.094229302
4.456962000 13.163514000 17.094229302
22.2848 13.163514000 17.094229302
0.000000000 13.163514000 20.302571828
17.8278 13.163514000 20.302571828
2.971308000 13.163514000 20.302571828
20.7992 13.163514000 20.302571828
1.485654000 16.454392500 20.643185738
19.3135 16.454392500 20.643185738
4.456962000 16.454392500 20.643185738
22.2848 16.454392500 20.643185738
5.942616000 13.163514000 7.434494385
23.7705 13.163514000 7.434494385
8.913924000 13.163514000 7.434494385
26.7418 13.163514000 7.434494385
7.428270000 16.454392500 7.093880475
25.2561 16.454392500 7.093880475
10.399578000 16.454392500 7.093880475
28.2274 16.454392500 7.093880475
5.942616000 16.454392500 10.468728597
23.7705 16.454392500 10.468728597
8.913924000 16.454392500 10.468728597
26.7418 16.454392500 10.468728597
7.428270000 13.163514000 10.642836912
25.2561 13.163514000 10.642836912
10.399578000 13.163514000 10.642836912
28.2274 13.163514000 10.642836912
5.942616000 13.163514000 13.868533108
23.7705 13.163514000 13.868533108
8.913924000 13.163514000 13.868533108
26.7418 13.163514000 13.868533108
7.428270000 16.454392500 13.868533108
25.2561 16.454392500 13.868533108
10.399578000 16.454392500 13.868533108
28.2274 16.454392500 13.868533108
5.942616000 16.454392500 17.268337616
23.7705 16.454392500 17.268337616
8.913924000 16.454392500 17.268337616
26.7418 16.454392500 17.268337616
7.428270000 13.163514000 17.094229302
25.2561 13.163514000 17.094229302
10.399578000 13.163514000 17.094229302
28.2274 13.163514000 17.094229302
5.942616000 13.163514000 20.302571828
23.7705 13.163514000 20.302571828
8.913924000 13.163514000 20.302571828
26.7418 13.163514000 20.302571828
7.428270000 16.454392500 20.643185738
25.2561 16.454392500 20.643185738
10.399578000 16.454392500 20.643185738
28.2274 16.454392500 20.643185738
11.885232000 13.163514000 7.434494385
29.7131 13.163514000 7.434494385
14.856540000 13.163514000 7.434494385
32.6844 13.163514000 7.434494385
13.370886000 16.454392500 7.093880475
31.1987 16.454392500 7.093880475
16.342194000 16.454392500 7.093880475
34.17 16.454392500 7.093880475
11.885232000 16.454392500 10.468728597
29.7131 16.454392500 10.468728597
14.856540000 16.454392500 10.468728597
32.6844 16.454392500 10.468728597
13.370886000 13.163514000 10.642836912
31.1987 13.163514000 10.642836912
16.342194000 13.163514000 10.642836912
34.17 13.163514000 10.642836912
11.885232000 13.163514000 13.868533108
29.7131 13.163514000 13.868533108
14.856540000 13.163514000 13.868533108
32.6844 13.163514000 13.868533108
13.370886000 16.454392500 13.868533108
31.1987 16.454392500 13.868533108
16.342194000 16.454392500 13.868533108
34.17 16.454392500 13.868533108
11.885232000 16.454392500 17.268337616
29.7131 16.454392500 17.268337616
14.856540000 16.454392500 17.268337616
32.6844 16.454392500 17.268337616
13.370886000 13.163514000 17.094229302
31.1987 13.163514000 17.094229302
16.342194000 13.163514000 17.094229302
34.17 13.163514000 17.094229302
11.885232000 13.163514000 20.302571828
29.7131 13.163514000 20.302571828
14.856540000 13.163514000 20.302571828
32.6844 13.163514000 20.302571828
13.370886000 16.454392500 20.643185738
31.1987 16.454392500 20.643185738
16.342194000 16.454392500 20.643185738
34.17 16.454392500 20.643185738
0.000000000 3.290878500 5.993837544
17.8278 3.290878500 5.993837544
2.971308000 3.290878500 5.993837544
20.7992 3.290878500 5.993837544
1.485654000 1.233252327 7.110139231
19.3135 1.233252327 7.110139231
4.456962000 1.233252327 7.110139231
22.2848 1.233252327 7.110139231
1.485654000 5.348504673 7.110139231
19.3135 5.348504673 7.110139231
4.456962000 5.348504673 7.110139231
22.2848 5.348504673 7.110139231
0.000000000 3.290878500 8.575845306
17.8278 3.290878500 8.575845306
2.971308000 3.290878500 8.575845306
20.7992 3.290878500 8.575845306
0.000000000 0.000000000 9.276601006
17.8278 0.000000000 9.276601006
2.971308000 0.000000000 9.276601006
20.7992 0.000000000 9.276601006
1.485654000 4.608026954 10.564948874
19.3135 4.608026954 10.564948874
4.456962000 4.608026954 10.564948874
22.2848 4.608026954 10.564948874
1.485654000 1.973730046 10.564948874
19.3135 1.973730046 10.564948874
4.456962000 1.973730046 10.564948874
22.2848 1.973730046 10.564948874
0.000000000 0.000000000 11.858549944
17.8278 0.000000000 11.858549944
2.971308000 0.000000000 11.858549944
20.7992 0.000000000 11.858549944
0.000000000 3.290878500 12.573519846
17.8278 3.290878500 12.573519846
2.971308000 3.290878500 12.573519846
20.7992 3.290878500 12.573519846
1.485654000 1.286776118 13.868533108
19.3135 1.286776118 13.868533108
4.456962000 1.286776118 13.868533108
22.2848 1.286776118 13.868533108
1.485654000 5.294980882 13.868533108
19.3135 5.294980882 13.868533108
4.456962000 5.294980882 13.868533108
22.2848 5.294980882 13.868533108
0.000000000 3.290878500 15.163546368
17.8278 3.290878500 15.163546368
2.971308000 3.290878500 15.163546368
20.7992 3.290878500 15.163546368
0.000000000 0.000000000 15.878516269
17.8278 0.000000000 15.878516269
2.971308000 0.000000000 15.878516269
20.7992 0.000000000 15.878516269
1.485654000 4.608026954 17.172117339
19.3135 4.608026954 17.172117339
4.456962000 4.608026954 17.172117339
22.2848 4.608026954 17.172117339
1.485654000 1.973730046 17.172117339
19.3135 1.973730046 17.172117339
4.456962000 1.973730046 17.172117339
22.2848 1.973730046 17.172117339
0.000000000 0.000000000 18.460465207
17.8278 0.000000000 18.460465207
2.971308000 0.000000000 18.460465207
20.7992 0.000000000 18.460465207
0.000000000 3.290878500 19.161220907
17.8278 3.290878500 19.161220907
2.971308000 3.290878500 19.161220907
20.7992 3.290878500 19.161220907
1.485654000 1.233252327 20.626926982
19.3135 1.233252327 20.626926982
4.456962000 1.233252327 20.626926982
22.2848 1.233252327 20.626926982
1.485654000 5.348504673 20.626926982
19.3135 5.348504673 20.626926982
4.456962000 5.348504673 20.626926982
22.2848 5.348504673 20.626926982
0.000000000 3.290878500 21.743228670
17.8278 3.290878500 21.743228670
2.971308000 3.290878500 21.743228670
20.7992 3.290878500 21.743228670
5.942616000 3.290878500 5.993837544
23.7705 3.290878500 5.993837544
8.913924000 3.290878500 5.993837544
26.7418 3.290878500 5.993837544
7.428270000 1.233252327 7.110139231
25.2561 1.233252327 7.110139231
10.399578000 1.233252327 7.110139231
28.2274 1.233252327 7.110139231
7.428270000 5.348504673 7.110139231
25.2561 5.348504673 7.110139231
10.399578000 5.348504673 7.110139231
28.2274 5.348504673 7.110139231
5.942616000 3.290878500 8.575845306
23.7705 3.290878500 8.575845306
8.913924000 3.290878500 8.575845306
26.7418 3.290878500 8.575845306
5.942616000 0.000000000 9.276601006
23.7705 0.000000000 9.276601006
8.913924000 0.000000000 9.276601006
26.7418 0.000000000 9.276601006
7.428270000 4.608026954 10.564948874
25.2561 4.608026954 10.564948874
10.399578000 4.608026954 10.564948874
28.2274 4.608026954 10.564948874
7.428270000 1.973730046 10.564948874
25.2561 1.973730046 10.564948874
10.399578000 1.973730046 10.564948874
28.2274 1.973730046 10.564948874
5.942616000 0.000000000 11.858549944
23.7705 0.000000000 11.858549944
8.913924000 0.000000000 11.858549944
26.7418 0.000000000 11.858549944
5.942616000 3.290878500 12.573519846
23.7705 3.290878500 12.573519846
8.913924000 3.290878500 12.573519846
26.7418 3.290878500 12.573519846
7.428270000 1.286776118 13.868533108
25.2561 1.286776118 13.868533108
10.399578000 1.286776118 13.868533108
28.2274 1.286776118 13.868533108
7.428270000 5.294980882 13.868533108
25.2561 5.294980882 13.868533108
10.399578000 5.294980882 13.868533108
28.2274 5.294980882 13.868533108
5.942616000 3.290878500 15.163546368
23.7705 3.290878500 15.163546368
8.913924000 3.290878500 15.163546368
26.7418 3.290878500 15.163546368
5.942616000 0.000000000 15.878516269
23.7705 0.000000000 15.878516269
8.913924000 0.000000000 15.878516269
26.7418 0.000000000 15.878516269
7.428270000 4.608026954 17.172117339
25.2561 4.608026954 17.172117339
10.399578000 4.608026954 17.172117339
28.2274 4.608026954 17.172117339
7.428270000 1.973730046 17.172117339
25.2561 1.973730046 17.172117339
10.399578000 1.973730046 17.172117339
28.2274 1.973730046 17.172117339
5.942616000 0.000000000 18.460465207
23.7705 0.000000000 18.460465207
8.913924000 0.000000000 18.460465207
26.7418 0.000000000 18.460465207
5.942616000 3.290878500 19.161220907
23.7705 3.290878500 19.161220907
8.913924000 3.290878500 19.161220907
26.7418 3.290878500 19.161220907
7.428270000 1.233252327 20.626926982
25.2561 1.233252327 20.626926982
10.399578000 1.233252327 20.626926982
28.2274 1.233252327 20.626926982
7.428270000 5.348504673 20.626926982
25.2561 5.348504673 20.626926982
10.399578000 5.348504673 20.626926982
28.2274 5.348504673 20.626926982
5.942616000 3.290878500 21.743228670
23.7705 3.290878500 21.743228670
8.913924000 3.290878500 21.743228670
26.7418 3.290878500 21.743228670
11.885232000 3.290878500 5.993837544
29.7131 3.290878500 5.993837544
14.856540000 3.290878500 5.993837544
32.6844 3.290878500 5.993837544
13.370886000 1.233252327 7.110139231
31.1987 1.233252327 7.110139231
16.342194000 1.233252327 7.110139231
34.17 1.233252327 7.110139231
13.370886000 5.348504673 7.110139231
31.1987 5.348504673 7.110139231
16.342194000 5.348504673 7.110139231
34.17 5.348504673 7.110139231
11.885232000 3.290878500 8.575845306
29.7131 3.290878500 8.575845306
14.856540000 3.290878500 8.575845306
32.6844 3.290878500 8.575845306
11.885232000 0.000000000 9.276601006
29.7131 0.000000000 9.276601006
14.856540000 0.000000000 9.276601006
32.6844 0.000000000 9.276601006
13.370886000 4.608026954 10.564948874
31.1987 4.608026954 10.564948874
16.342194000 4.608026954 10.564948874
34.17 4.608026954 10.564948874
13.370886000 1.973730046 10.564948874
31.1987 1.973730046 10.564948874
16.342194000 1.973730046 10.564948874
34.17 1.973730046 10.564948874
11.885232000 0.000000000 11.858549944
29.7131 0.000000000 11.858549944
14.856540000 0.000000000 11.858549944
32.6844 0.000000000 11.858549944
11.885232000 3.290878500 12.573519846
29.7131 3.290878500 12.573519846
14.856540000 3.290878500 12.573519846
32.6844 3.290878500 12.573519846
13.370886000 1.286776118 13.868533108
31.1987 1.286776118 13.868533108
16.342194000 1.286776118 13.868533108
34.17 1.286776118 13.868533108
13.370886000 5.294980882 13.868533108
31.1987 5.294980882 13.868533108
16.342194000 5.294980882 13.868533108
34.17 5.294980882 13.868533108
11.885232000 3.290878500 15.163546368
29.7131 3.290878500 15.163546368
14.856540000 3.290878500 15.163546368
32.6844 3.290878500 15.163546368
11.885232000 0.000000000 15.878516269
29.7131 0.000000000 15.878516269
14.856540000 0.000000000 15.878516269
32.6844 0.000000000 15.878516269
13.370886000 4.608026954 17.172117339
31.1987 4.608026954 17.172117339
16.342194000 4.608026954 17.172117339
34.17 4.608026954 17.172117339
13.370886000 1.973730046 17.172117339
31.1987 1.973730046 17.172117339
16.342194000 1.973730046 17.172117339
34.17 1.973730046 17.172117339
11.885232000 0.000000000 18.460465207
29.7131 0.000000000 18.460465207
14.856540000 0.000000000 18.460465207
32.6844 0.000000000 18.460465207
11.885232000 3.290878500 19.161220907
29.7131 3.290878500 19.161220907
14.856540000 3.290878500 19.161220907
32.6844 3.290878500 19.161220907
13.370886000 1.233252327 20.626926982
31.1987 1.233252327 20.626926982
16.342194000 1.233252327 20.626926982
34.17 1.233252327 20.626926982
13.370886000 5.348504673 20.626926982
31.1987 5.348504673 20.626926982
16.342194000 5.348504673 20.626926982
34.17 5.348504673 20.626926982
11.885232000 3.290878500 21.743228670
29.7131 3.290878500 21.743228670
14.856540000 3.290878500 21.743228670
32.6844 3.290878500 21.743228670
0.000000000 9.872635500 5.993837544
17.8278 9.872635500 5.993837544
2.971308000 9.872635500 5.993837544
20.7992 9.872635500 5.993837544
1.485654000 7.815009327 7.110139231
19.3135 7.815009327 7.110139231
4.456962000 7.815009327 7.110139231
22.2848 7.815009327 7.110139231
1.485654000 11.930261673 7.110139231
19.3135 11.930261673 7.110139231
4.456962000 11.930261673 7.110139231
22.2848 11.930261673 7.110139231
0.000000000 9.872635500 8.575845306
17.8278 9.872635500 8.575845306
2.971308000 9.872635500 8.575845306
20.7992 9.872635500 8.575845306
0.000000000 6.581757000 9.276601006
17.8278 6.581757000 9.276601006
2.971308000 6.581757000 9.276601006
20.7992 6.581757000 9.276601006
1.485654000 11.189783954 10.564948874
19.3135 11.189783954 10.564948874
4.456962000 11.189783954 10.564948874
22.2848 11.189783954 10.564948874
1.485654000 8.555487046 10.564948874
19.3135 8.555487046 10.564948874
4.456962000 8.555487046 10.564948874
22.2848 8.555487046 10.564948874
0.000000000 6.581757000 11.858549944
17.8278 6.581757000 11.858549944
2.971308000 6.581757000 11.858549944
20.7992 6.581757000 11.858549944
0.000000000 9.872635500 12.573519846
17.8278 9.872635500 12.573519846
2.971308000 9.872635500 12.573519846
20.7992 9.872635500 12.573519846
1.485654000 7.868533118 13.868533108
19.3135 7.868533118 13.868533108
4.456962000 7.868533118 13.868533108
22.2848 7.868533118 13.868533108
1.485654000 11.876737882 13.868533108
19.3135 11.876737882 13.868533108
4.456962000 11.876737882 13.868533108
22.2848 11.876737882 13.868533108
0.000000000 9.872635500 15.163546368
17.8278 9.872635500 15.163546368
2.971308000 9.872635500 15.163546368
20.7992 9.872635500 15.163546368
0.000000000 6.581757000 15.878516269
17.8278 6.581757000 15.878516269
2.971308000 6.581757000 15.878516269
20.7992 6.581757000 15.878516269
1.485654000 11.189783954 17.172117339
19.3135 11.189783954 17.172117339
4.456962000 11.189783954 17.172117339
22.2848 11.189783954 17.172117339
1.485654000 8.555487046 17.172117339
19.3135 8.555487046 17.172117339
4.456962000 8.555487046 17.172117339
22.2848 8.555487046 17.172117339
0.000000000 6.581757000 18.460465207
17.8278 6.581757000 18.460465207
2.971308000 6.581757000 18.460465207
20.7992 6.581757000 18.460465207
0.000000000 9.872635500 19.161220907
17.8278 9.872635500 19.161220907
2.971308000 9.872635500 19.161220907
20.7992 9.872635500 19.161220907
1.485654000 7.815009327 20.626926982
19.3135 7.815009327 20.626926982
4.456962000 7.815009327 20.626926982
22.2848 7.815009327 20.626926982
1.485654000 11.930261673 20.626926982
19.3135 11.930261673 20.626926982
4.456962000 11.930261673 20.626926982
22.2848 11.930261673 20.626926982
0.000000000 9.872635500 21.743228670
17.8278 9.872635500 21.743228670
2.971308000 9.872635500 21.743228670
20.7992 9.872635500 21.743228670
5.942616000 9.872635500 5.993837544
23.7705 9.872635500 5.993837544
8.913924000 9.872635500 5.993837544
26.7418 9.872635500 5.993837544
7.428270000 7.815009327 7.110139231
25.2561 7.815009327 7.110139231
10.399578000 7.815009327 7.110139231
28.2274 7.815009327 7.110139231
7.428270000 11.930261673 7.110139231
25.2561 11.930261673 7.110139231
10.399578000 11.930261673 7.110139231
28.2274 11.930261673 7.110139231
5.942616000 9.872635500 8.575845306
23.7705 9.872635500 8.575845306
8.913924000 9.872635500 8.575845306
26.7418 9.872635500 8.575845306
5.942616000 6.581757000 9.276601006
23.7705 6.581757000 9.276601006
8.913924000 6.581757000 9.276601006
26.7418 6.581757000 9.276601006
7.428270000 11.189783954 10.564948874
25.2561 11.189783954 10.564948874
10.399578000 11.189783954 10.564948874
28.2274 11.189783954 10.564948874
7.428270000 8.555487046 10.564948874
25.2561 8.555487046 10.564948874
10.399578000 8.555487046 10.564948874
28.2274 8.555487046 10.564948874
5.942616000 6.581757000 11.858549944
23.7705 6.581757000 11.858549944
8.913924000 6.581757000 11.858549944
26.7418 6.581757000 11.858549944
5.942616000 9.872635500 12.573519846
23.7705 9.872635500 12.573519846
8.913924000 9.872635500 12.573519846
26.7418 9.872635500 12.573519846
7.428270000 7.868533118 13.868533108
25.2561 7.868533118 13.868533108
10.399578000 7.868533118 13.868533108
28.2274 7.868533118 13.868533108
7.428270000 11.876737882 13.868533108
25.2561 11.876737882 13.868533108
10.399578000 11.876737882 13.868533108
28.2274 11.876737882 13.868533108
5.942616000 9.872635500 15.163546368
23.7705 9.872635500 15.163546368
8.913924000 9.872635500 15.163546368
26.7418 9.872635500 15.163546368
5.942616000 6.581757000 15.878516269
23.7705 6.581757000 15.878516269
8.913924000 6.581757000 15.878516269
26.7418 6.581757000 15.878516269
7.428270000 11.189783954 17.172117339
25.2561 11.189783954 17.172117339
10.399578000 11.189783954 17.172117339
28.2274 11.189783954 17.172117339
7.428270000 8.555487046 17.172117339
25.2561 8.555487046 17.172117339
10.399578000 8.555487046 17.172117339
28.2274 8.555487046 17.172117339
5.942616000 6.581757000 18.460465207
23.7705 6.581757000 18.460465207
8.913924000 6.581757000 18.460465207
26.7418 6.581757000 18.460465207
5.942616000 9.872635500 19.161220907
23.7705 9.872635500 19.161220907
8.913924000 9.872635500 19.161220907
26.7418 9.872635500 19.161220907
7.428270000 7.815009327 20.626926982
25.2561 7.815009327 20.626926982
10.399578000 7.815009327 20.626926982
28.2274 7.815009327 20.626926982
7.428270000 11.930261673 20.626926982
25.2561 11.930261673 20.626926982
10.399578000 11.930261673 20.626926982
28.2274 11.930261673 20.626926982
5.942616000 9.872635500 21.743228670
23.7705 9.872635500 21.743228670
8.913924000 9.872635500 21.743228670
26.7418 9.872635500 21.743228670
11.885232000 9.872635500 5.993837544
29.7131 9.872635500 5.993837544
14.856540000 9.872635500 5.993837544
32.6844 9.872635500 5.993837544
13.370886000 7.815009327 7.110139231
31.1987 7.815009327 7.110139231
16.342194000 7.815009327 7.110139231
34.17 7.815009327 7.110139231
13.370886000 11.930261673 7.110139231
31.1987 11.930261673 7.110139231
16.342194000 11.930261673 7.110139231
34.17 11.930261673 7.110139231
11.885232000 9.872635500 8.575845306
29.7131 9.872635500 8.575845306
14.856540000 9.872635500 8.575845306
32.6844 9.872635500 8.575845306
11.885232000 6.581757000 9.276601006
29.7131 6.581757000 9.276601006
14.856540000 6.581757000 9.276601006
32.6844 6.581757000 9.276601006
13.370886000 11.189783954 10.564948874
31.1987 11.189783954 10.564948874
16.342194000 11.189783954 10.564948874
34.17 11.189783954 10.564948874
13.370886000 8.555487046 10.564948874
31.1987 8.555487046 10.564948874
16.342194000 8.555487046 10.564948874
34.17 8.555487046 10.564948874
11.885232000 6.581757000 11.858549944
29.7131 6.581757000 11.858549944
14.856540000 6.581757000 11.858549944
32.6844 6.581757000 11.858549944
11.885232000 9.872635500 12.573519846
29.7131 9.872635500 12.573519846
14.856540000 9.872635500 12.573519846
32.6844 9.872635500 12.573519846
13.370886000 7.868533118 13.868533108
31.1987 7.868533118 13.868533108
16.342194000 7.868533118 13.868533108
34.17 7.868533118 13.868533108
13.370886000 11.876737882 13.868533108
31.1987 11.876737882 13.868533108
16.342194000 11.876737882 13.868533108
34.17 11.876737882 13.868533108
11.885232000 9.872635500 15.163546368
29.7131 9.872635500 15.163546368
14.856540000 9.872635500 15.163546368
32.6844 9.872635500 15.163546368
11.885232000 6.581757000 15.878516269
29.7131 6.581757000 15.878516269
14.856540000 6.581757000 15.878516269
32.6844 6.581757000 15.878516269
13.370886000 11.189783954 17.172117339
31.1987 11.189783954 17.172117339
16.342194000 11.189783954 17.172117339
34.17 11.189783954 17.172117339
13.370886000 8.555487046 17.172117339
31.1987 8.555487046 17.172117339
16.342194000 8.555487046 17.172117339
34.17 8.555487046 17.172117339
11.885232000 6.581757000 18.460465207
29.7131 6.581757000 18.460465207
14.856540000 6.581757000 18.460465207
32.6844 6.581757000 18.460465207
11.885232000 9.872635500 19.161220907
29.7131 9.872635500 19.161220907
14.856540000 9.872635500 19.161220907
32.6844 9.872635500 19.161220907
13.370886000 7.815009327 20.626926982
31.1987 7.815009327 20.626926982
16.342194000 7.815009327 20.626926982
34.17 7.815009327 20.626926982
13.370886000 11.930261673 20.626926982
31.1987 11.930261673 20.626926982
16.342194000 11.930261673 20.626926982
34.17 11.930261673 20.626926982
11.885232000 9.872635500 21.743228670
29.7131 9.872635500 21.743228670
14.856540000 9.872635500 21.743228670
32.6844 9.872635500 21.743228670
0.000000000 16.454392500 5.993837544
17.8278 16.454392500 5.993837544
2.971308000 16.454392500 5.993837544
20.7992 16.454392500 5.993837544
1.485654000 14.396766327 7.110139231
19.3135 14.396766327 7.110139231
4.456962000 14.396766327 7.110139231
22.2848 14.396766327 7.110139231
1.485654000 18.512018673 7.110139231
19.3135 18.512018673 7.110139231