SYSTEM = CdTe

ISTART = 0 ; ICHARG = 2

LWAVE = .FALSE. ; LCHARG = .FALSE.

NCSHMEM = 1
NBLOCK_FOCK = 8

LSCAAWARE = .TRUE.

NELMDL = 5 ; NELM = 7

ALGO = All
ISIF = 2

LHFCALC = .TRUE. ; AEXX = 0.25 ; HFSCREEN = 0.2

NBANDS = 640
ENCUT = 450
PREC = Accurate
PRECFOCK = Fast
LASPH = .TRUE.
LREAL = .FALSE.

ISMEAR = 0 ; SIGMA = 0.05

LNONCOLLINEAR = .TRUE.
MAGMOM = 195*0
