AEXX = 0.25
ENCUT = 450
ICORELEVEL = 0 # Get core potentials in OUTCAR for Kumagai corrections
NSW = 0
LSORBIT = True
EDIFF = 1e-06
EDIFFG = -0.01
ALGO = All
ADDGRID = True
HFSCREEN = 0.2
IBRION = -1
ICHARG = 1
ISIF = 2
ISYM = 0
ISMEAR = 0
LASPH = True
LHFCALC = True
LORBIT = 11
LREAL = False
LVHAR = True
LWAVE = True
NEDOS = 2000
NELM = 6
PREC = Accurate
PRECFOCK = Fast
SIGMA = 0.05
NELECT = 588
