Cd33 Te32
1.0
13.086768 0.000000 0.000000
0.000000 13.086768 0.000000
0.000000 0.000000 13.086768
Cd Te
33 32
direct
0.004485 0.995515 0.004485 Cd
0.001247 0.998753 0.496959 Cd
0.001247 0.503041 0.001247 Cd
0.999625 0.501218 0.498782 Cd
0.496959 0.998753 0.001247 Cd
0.498781 0.000375 0.498781 Cd
0.498781 0.501219 0.999625 Cd
0.500528 0.499472 0.500528 Cd
0.001247 0.251247 0.253040 Cd
0.004486 0.254485 0.745515 Cd
0.999625 0.748782 0.251218 Cd
0.001247 0.746959 0.748753 Cd
0.498782 0.249625 0.251219 Cd
0.496960 0.251247 0.748753 Cd
0.500528 0.750528 0.249472 Cd
0.498781 0.748781 0.750375 Cd
0.251219 0.000375 0.251219 Cd
0.253040 0.998753 0.748753 Cd
0.249472 0.499472 0.249472 Cd
0.251219 0.501219 0.750375 Cd
0.748753 0.998753 0.253040 Cd
0.745514 0.995515 0.745515 Cd
0.750375 0.501219 0.251219 Cd
0.748753 0.503040 0.748753 Cd
0.253040 0.251247 0.001247 Cd
0.251219 0.249625 0.498781 Cd
0.251219 0.748781 0.999625 Cd
0.249472 0.750528 0.500528 Cd
0.745514 0.254485 0.004485 Cd
0.748753 0.251247 0.496960 Cd
0.748753 0.746959 0.001247 Cd
0.750375 0.748782 0.498782 Cd
0.875000 0.125000 0.875000 Cd
0.126656 0.125000 0.375000 Te
0.132779 0.125000 0.875000 Te
0.125892 0.625000 0.375000 Te
0.126656 0.625000 0.875000 Te
0.623344 0.125000 0.375000 Te
0.617221 0.125000 0.875000 Te
0.624108 0.625000 0.375000 Te
0.623344 0.625000 0.875000 Te
0.124848 0.374848 0.124848 Te
0.127488 0.377488 0.622512 Te
0.127488 0.872512 0.127488 Te
0.124848 0.875152 0.625152 Te
0.622512 0.377488 0.127488 Te
0.625152 0.374848 0.625152 Te
0.625152 0.875152 0.124848 Te
0.622512 0.872512 0.622512 Te
0.375000 0.125000 0.126656 Te
0.375000 0.125000 0.623344 Te
0.375000 0.625000 0.125892 Te
0.375000 0.625000 0.624108 Te
0.875000 0.125000 0.132779 Te
0.875000 0.125000 0.617221 Te
0.875000 0.625000 0.126656 Te
0.875000 0.625000 0.623344 Te
0.375000 0.375892 0.375000 Te
0.375000 0.376656 0.875000 Te
0.375000 0.874108 0.375000 Te
0.375000 0.873344 0.875000 Te
0.875000 0.376656 0.375000 Te
0.875000 0.382779 0.875000 Te
0.875000 0.873344 0.375000 Te
0.875000 0.867221 0.875000 Te
